PARAMETER_FILE = even/even_uncomplete_graph_new/nei/par/random196.par
PROBLEM_FILE = even/even_uncomplete_graph_new/nei/mat/random196.tsp
Successes/Runs = 0/10
Cost.min = 1039, Cost.avg = 1039.00, Cost.max = 1039
Gap.min = 0.0000%, Gap.avg = 0.0000%, Gap.max = 0.0000%
Trials.min = 1000, Trials.avg = 1000.0, Trials.max = 1000
Time.min = 1.01 sec., Time.avg = 1.34 sec., Time.max = 2.00 sec.
Time.total = 13.60 sec.
